c ren 1 -> 1
c ren 2 -> 2
c ren 4 -> 3
c ren 6 -> 4
c ren 7 -> 5
c ren 9 -> 6
c ren 12 -> 7
c ren 13 -> 8
c ren 15 -> 9
c ren 18 -> 10
c ren 20 -> 11
c ren 23 -> 12
c ren 24 -> 13
c ren 26 -> 14
c ren 29 -> 15
c ren 30 -> 16
c ren 32 -> 17
c ren 35 -> 18
c ren 37 -> 19
c ren 40 -> 20
c ren 42 -> 21
c ren 45 -> 22
c ren 47 -> 23
c ren 50 -> 24
c ren 52 -> 25
c ren 55 -> 26
c ren 57 -> 27
c ren 60 -> 28
c ren 62 -> 29
c ren 65 -> 30
c ren 70 -> 31
c ren 75 -> 32
c ren 80 -> 33
c ren 84 -> 34
c ren 85 -> 35
c ren 87 -> 36
c ren 90 -> 37
c ren 92 -> 38
c ren 95 -> 39
c ren 97 -> 40
c ren 100 -> 41
c ren 102 -> 42
c ren 105 -> 43
c ren 107 -> 44
c ren 110 -> 45
c ren 112 -> 46
c ren 115 -> 47
c ren 117 -> 48
c ren 120 -> 49
c ren 125 -> 50
c ren 130 -> 51
c ren 135 -> 52
c ren 140 -> 53
c ren 144 -> 54
c ren 145 -> 55
c ren 147 -> 56
c ren 150 -> 57
c ren 151 -> 58
c ren 154 -> 59
c ren 155 -> 60
c ren 158 -> 61
c ren 159 -> 62
c ren 162 -> 63
c ren 164 -> 64
c ren 167 -> 65
c ren 168 -> 66
c ren 171 -> 67
c ren 172 -> 68
c ren 175 -> 69
c ren 177 -> 70
c ren 180 -> 71
c ren 182 -> 72
c ren 185 -> 73
c ren 187 -> 74
c ren 190 -> 75
c ren 192 -> 76
c ren 195 -> 77
c ren 197 -> 78
c ren 200 -> 79
c ren 202 -> 80
c ren 205 -> 81
c ren 206 -> 82
c ren 208 -> 83
c ren 211 -> 84
c ren 213 -> 85
c ren 216 -> 86
c ren 218 -> 87
c ren 221 -> 88
c ren 223 -> 89
c ren 226 -> 90
c ren 228 -> 91
c ren 231 -> 92
c ren 233 -> 93
c ren 236 -> 94
c ren 238 -> 95
c ren 241 -> 96
c ren 243 -> 97
c ren 246 -> 98
c ren 248 -> 99
c ren 251 -> 100
c ren 253 -> 101
c ren 256 -> 102
c ren 261 -> 103
c ren 265 -> 104
c ren 270 -> 105
c ren 274 -> 106
c ren 275 -> 107
c ren 277 -> 108
c ren 280 -> 109
c ren 285 -> 110
c ren 286 -> 111
c ren 289 -> 112
c ren 293 -> 113
c ren 296 -> 114
c ren 303 -> 115
c ren 304 -> 116
c ren 305 -> 117
c ren 308 -> 118
c ren 311 -> 119
c ren 312 -> 120
c ren 314 -> 121
c ren 315 -> 122
c ren 316 -> 123
c ren 323 -> 124
c ren 324 -> 125
c ren 325 -> 126
c ren 327 -> 127
c ren 328 -> 128
c ren 331 -> 129
c ren 332 -> 130
c ren 334 -> 131
c ren 335 -> 132
c ren 341 -> 133
c ren 342 -> 134
c ren 343 -> 135
c ren 346 -> 136
c ren 350 -> 137
c ren 353 -> 138
c ren 354 -> 139
c ren 357 -> 140
c ren 361 -> 141
c ren 364 -> 142
c ren 367 -> 143
c ren 371 -> 144
c ren 374 -> 145
c ren 378 -> 146
c ren 379 -> 147
c ren 382 -> 148
c ren 386 -> 149
c ren 388 -> 150
c ren 392 -> 151
c ren 394 -> 152
c ren 396 -> 153
c ren 397 -> 154
c ren 399 -> 155
c ren 401 -> 156
c ren 403 -> 157
c ren 404 -> 158
c ren 409 -> 159
c ren 412 -> 160
c ren 416 -> 161
c ren 419 -> 162
c ren 426 -> 163
c ren 427 -> 164
c ren 438 -> 165
c ren 443 -> 166
c ren 444 -> 167
c ren 446 -> 168
c ren 448 -> 169
c ren 453 -> 170
c ren 455 -> 171
c ren 458 -> 172
c ren 475 -> 173
c ren 482 -> 174
c ren 485 -> 175
c ren 488 -> 176
c ren 491 -> 177
c ren 492 -> 178
c ren 494 -> 179
p cnf 179 794
a 1 2 4 5 7 8 10 12 13 15 16 18 20 22 24 26 28 30 31 32 33 35 37 39 41 43 45 47 49 50 51 52 53 55 57 59 61 63 65 67 69 71 73 75 77 79 81 84 86 88 90 92 94 96 98 100 102 103 104 105 107 109 110 111 112 113 114 116 117 118 120 122 124 125 127 129 131 134 135 136 138 139 140 142 143 144 145 147 148 150 152 154 156 158 159 160 161 162 167 0
d 82 5 8 0
d 149 2 167 0
d 163 110 116 124 134 138 0
e 3 6 9 11 14 17 19 21 23 25 27 29 34 36 38 40 42 44 46 48 54 56 58 60 62 64 66 68 70 72 74 76 78 80 83 85 87 89 91 93 95 97 99 101 106 108 115 119 121 123 126 128 130 132 133 137 141 146 151 153 155 157 164 165 166 168 169 170 171 172 173 174 175 176 177 178 179 0
-1 2 3 0
1 -2 3 0
-1 -2 -3 0
1 2 -3 0
-4 5 6 0
4 -5 6 0
-4 -5 -6 0
4 5 -6 0
6 34 0
-7 8 9 0
7 -8 9 0
-7 -8 -9 0
7 8 -9 0
9 34 0
4 -10 -11 0
-4 -7 -10 11 0
-4 -7 10 -11 0
7 10 11 0
7 -10 -11 0
4 10 11 0
11 34 0
-3 -5 -6 -8 -9 -11 -14 -17 -18 -19 -21 -23 -25 -27 -29 -30 -31 32 33 -34 0
-12 13 14 0
12 -13 14 0
-12 -13 -14 0
12 13 -14 0
14 34 0
-3 -6 8 -9 -11 -14 15 -17 -19 -21 -23 -25 -27 -29 30 31 32 33 -34 0
-15 16 17 0
15 -16 17 0
-15 -16 -17 0
15 16 -17 0
17 34 0
12 -18 -19 0
-12 -15 -18 19 0
-12 -15 18 -19 0
15 18 19 0
15 -18 -19 0
12 18 19 0
19 34 0
-3 -5 -6 -8 -9 -11 -14 -15 -17 18 -19 -21 -23 -25 -27 -29 -30 31 -32 33 -34 0
10 -20 -21 0
-10 -18 -20 21 0
-10 -18 20 -21 0
18 20 21 0
18 -20 -21 0
10 20 21 0
21 34 0
-3 -5 -6 -8 -9 -11 13 -14 -17 18 -19 -21 -23 -25 -27 -29 -30 31 32 33 -34 0
5 -22 -23 0
-5 -7 -22 23 0
-5 -7 22 -23 0
7 22 23 0
7 -22 -23 0
5 22 23 0
23 34 0
-3 -5 -6 -8 -9 -11 -14 15 -17 -19 -21 -23 -25 -27 -29 -30 31 32 33 -34 0
18 -24 -25 0
-18 -22 -24 25 0
-18 -22 24 -25 0
22 24 25 0
22 -24 -25 0
18 24 25 0
25 34 0
4 -26 -27 0
-4 -8 -26 27 0
-4 -8 26 -27 0
8 26 27 0
8 -26 -27 0
4 26 27 0
27 34 0
-3 5 -6 -9 10 -11 -13 -14 -15 -17 -19 -21 -23 -25 -27 -29 30 31 -32 33 -34 0
18 -28 -29 0
-18 -26 -28 29 0
-18 -26 28 -29 0
26 28 29 0
26 -28 -29 0
18 28 29 0
29 34 0
-3 5 -6 -9 -11 13 -14 -17 -19 -21 -23 -25 -27 -29 30 31 32 33 -34 0
-3 -6 -9 -10 -11 -13 -14 -15 -17 -19 -21 -23 -25 -27 -29 30 31 -32 -33 -34 0
-3 5 -6 -9 -11 -14 15 -17 -19 -21 -23 -25 -27 -29 30 31 32 33 -34 0
-3 -6 8 -9 -11 13 -14 -17 -19 -21 -23 -25 -27 -29 30 31 32 33 -34 0
-3 -6 8 -10 -11 -13 -14 -15 -17 -19 -21 -23 -25 -27 -29 30 31 -32 -33 -34 0
3 34 0
-3 -6 8 -9 10 -11 -13 -14 -15 -17 -19 -21 -23 -25 -27 -29 30 31 -32 33 -34 0
8 -30 34 0
-18 -30 31 34 0
-5 -8 30 34 0
13 -32 34 0
30 -31 34 0
15 -32 34 0
18 -31 34 0
-13 -15 32 34 0
10 -33 34 0
32 -33 34 0
-10 -32 33 34 0
5 -30 34 0
22 -35 -36 0
-22 -32 -35 36 0
-22 -32 35 -36 0
32 35 36 0
32 -35 -36 0
22 35 36 0
36 54 0
-10 -26 34 0
26 -37 -38 0
-26 -32 -37 38 0
-26 -32 37 -38 0
32 37 38 0
32 -37 -38 0
26 37 38 0
38 54 0
-10 -30 34 0
30 -39 -40 0
-30 -32 -39 40 0
-30 -32 39 -40 0
32 39 40 0
32 -39 -40 0
30 39 40 0
40 54 0
-26 -30 34 0
12 -41 -42 0
-12 -16 -41 42 0
-12 -16 41 -42 0
16 41 42 0
16 -41 -42 0
12 41 42 0
42 54 0
-13 -16 54 -56 -58 -60 -62 -63 -64 -66 -68 -70 -72 73 -76 -78 -80 82 -83 -85 -87 -89 -91 -93 -95 -97 -99 -101 102 -103 -104 105 -106 0
10 -43 -44 0
-10 -41 -43 44 0
-10 -41 43 -44 0
41 43 44 0
41 -43 -44 0
10 43 44 0
44 54 0
-22 -26 34 0
22 -45 -46 0
-22 -41 -45 46 0
-22 -41 45 -46 0
41 45 46 0
41 -45 -46 0
22 45 46 0
46 54 0
26 -47 -48 0
-26 -41 -47 48 0
-26 -41 47 -48 0
41 47 48 0
41 -47 -48 0
26 47 48 0
48 54 0
16 54 -56 -58 -60 -62 -64 -66 -68 -70 -72 -74 -76 -78 -80 -83 -85 -87 -89 -91 -93 -95 -97 -99 -101 102 103 104 105 -106 0
-34 54 0
-10 -22 34 0
-30 34 -36 -38 -40 -41 -42 -44 -46 -48 -49 50 51 52 53 -54 0
-13 -16 -26 34 -36 -38 -40 41 -44 -46 -48 49 -50 51 52 -53 -54 0
-13 -16 54 -56 -58 -62 -63 -64 -66 -68 -70 -72 73 -74 -76 -78 -80 -83 -85 -87 -89 -91 -93 -95 -97 -99 -101 102 -103 -104 105 -106 0
13 54 -56 -58 -60 -62 -64 -66 -68 -70 -72 -74 -76 -78 -80 -83 -85 -87 -89 -91 -93 94 -95 -97 -99 -101 102 103 104 105 -106 0
-13 -16 54 -56 -58 -60 -62 -64 -66 -68 -70 -72 -73 -74 -76 -78 -80 -83 -85 -87 -89 -91 -93 94 -97 -99 -101 102 -103 104 -105 -106 0
16 -103 106 0
-13 -16 54 -56 -58 -60 -62 63 -64 -66 -68 -70 -72 73 -74 -76 -78 -80 -83 -85 -87 -89 -91 -93 -95 -97 -99 -101 102 -103 104 105 -106 0
-30 -41 49 54 0
13 54 -56 -58 -60 -62 -64 -66 -68 -70 -72 -74 -76 -78 -80 82 -83 -85 -87 -89 -91 -93 -95 -97 -99 -101 102 103 104 105 -106 0
-13 -16 -22 34 -36 -38 -40 -42 -44 -46 -48 49 -50 51 -52 53 -54 0
13 30 34 -36 -38 -40 -42 -44 -46 -48 49 50 51 52 53 -54 0
-10 -50 51 54 0
30 -49 54 0
50 -51 54 0
-13 -16 -26 34 -36 -38 -40 -42 -44 -46 -48 49 -50 51 52 -53 -54 0
41 -49 54 0
22 -52 54 0
-22 -50 52 54 0
50 -52 54 0
26 -53 54 0
50 -53 54 0
-26 -50 53 54 0
10 -51 54 0
30 -55 -56 0
-30 -50 -55 56 0
-30 -50 55 -56 0
50 55 56 0
50 -55 -56 0
30 55 56 0
56 106 0
2 -57 58 0
-2 57 58 0
-2 -57 -58 0
2 57 -58 0
58 106 0
-13 34 -41 -42 0
5 -59 60 0
-5 59 60 0
-5 -59 -60 0
5 59 -60 0
60 106 0
8 -61 62 0
-8 61 62 0
-8 -61 -62 0
8 61 -62 0
62 106 0
59 -63 -64 0
-59 -61 -63 64 0
-59 -61 63 -64 0
61 63 64 0
61 -63 -64 0
59 63 64 0
64 106 0
13 34 -36 -38 -40 41 -42 -44 -46 -48 49 50 51 52 53 -54 0
13 -65 66 0
-13 65 66 0
-13 -65 -66 0
13 65 -66 0
66 106 0
16 -67 68 0
-16 67 68 0
-16 -67 -68 0
16 67 -68 0
68 106 0
-13 -16 54 -56 -58 -62 63 -64 -66 -68 -70 -72 -73 -74 -76 -78 -80 82 -83 -85 -87 -89 -91 -93 -95 -97 -99 -101 102 -103 104 -105 -106 0
65 -69 -70 0
-65 -67 -69 70 0
-65 -67 69 -70 0
67 69 70 0
67 -69 -70 0
65 69 70 0
70 106 0
-10 -13 -16 34 -36 -38 -40 -42 -44 -46 -48 49 -50 -51 52 53 -54 0
63 -71 -72 0
-63 -69 -71 72 0
-63 -69 71 -72 0
69 71 72 0
69 -71 -72 0
63 71 72 0
72 106 0
-13 -66 -94 -95 0
5 -73 -74 0
-5 -61 -73 74 0
-5 -61 73 -74 0
61 73 74 0
61 -73 -74 0
5 73 74 0
74 106 0
13 -103 106 0
69 -75 -76 0
-69 -73 -75 76 0
-69 -73 75 -76 0
73 75 76 0
73 -75 -76 0
69 75 76 0
76 106 0
8 -77 -78 0
-8 -59 -77 78 0
-8 -59 77 -78 0
59 77 78 0
59 -77 -78 0
8 77 78 0
78 106 0
-13 -16 50 54 0
69 -79 -80 0
-69 -77 -79 80 0
-69 -77 79 -80 0
77 79 80 0
77 -79 -80 0
69 79 80 0
80 106 0
-13 -16 54 -56 -58 -60 -62 63 -64 -68 -70 -72 73 -74 -76 -78 -80 -83 -85 -87 -89 -91 -93 94 -95 -97 -99 -101 102 -103 104 105 -106 0
69 -81 -83 0
-69 -81 -82 83 0
-69 81 -82 -83 0
81 82 83 0
-81 82 -83 0
69 81 83 0
83 106 0
-13 -16 103 106 0
13 -84 -85 0
-13 -67 -84 85 0
-13 -67 84 -85 0
67 84 85 0
67 -84 -85 0
13 84 85 0
85 106 0
13 54 -56 -58 -60 -62 -64 -68 -70 -72 -74 -76 -78 -80 -82 -83 -85 -87 -89 -91 -93 -94 -95 -97 -99 -101 -102 103 104 105 -106 0
63 -86 -87 0
-63 -84 -86 87 0
-63 -84 86 -87 0
84 86 87 0
84 -86 -87 0
63 86 87 0
87 106 0
-54 106 0
73 -88 -89 0
-73 -84 -88 89 0
-73 -84 88 -89 0
84 88 89 0
84 -88 -89 0
73 88 89 0
89 106 0
77 -90 -91 0
-77 -84 -90 91 0
-77 -84 90 -91 0
84 90 91 0
84 -90 -91 0
77 90 91 0
91 106 0
82 -92 -93 0
-82 -84 -92 93 0
-82 -84 92 -93 0
84 92 93 0
84 -92 -93 0
82 92 93 0
93 106 0
16 -94 -95 0
-16 -65 -94 95 0
-16 -65 94 -95 0
65 94 95 0
65 -94 -95 0
16 94 95 0
95 106 0
63 -96 -97 0
-63 -94 -96 97 0
-63 -94 96 -97 0
94 96 97 0
94 -96 -97 0
63 96 97 0
103 -109 115 0
97 106 0
73 -98 -99 0
-73 -94 -98 99 0
-73 -94 98 -99 0
94 98 99 0
94 -98 -99 0
73 98 99 0
103 106 -108 109 110 111 112 113 114 -115 0
-106 115 0
99 106 0
77 -100 -101 0
-77 -94 -100 101 0
-77 -94 100 -101 0
94 100 101 0
94 -100 -101 0
77 100 101 0
90 103 106 -108 109 110 111 112 114 -115 0
92 103 106 -108 109 110 111 112 113 -115 0
101 106 0
88 92 103 106 -108 109 110 111 113 -115 0
90 92 103 106 -108 109 110 111 112 -115 0
-82 -94 102 106 0
94 -102 106 0
82 -102 106 0
88 90 103 106 -108 109 110 111 114 -115 0
88 103 106 -108 109 110 111 113 114 -115 0
13 -50 54 0
10 -13 -16 22 26 34 -36 -38 -40 -42 -44 -46 -48 49 -50 51 52 53 -54 0
63 -104 106 0
86 92 103 106 -108 109 110 112 113 -115 0
88 90 92 103 106 -108 109 110 111 -115 0
-63 -103 104 106 0
103 -104 106 0
73 -105 106 0
103 -105 106 0
-73 -103 105 106 0
-2 -86 106 -108 109 -110 -111 -115 0
86 90 92 103 106 -108 109 110 112 -115 0
77 -107 -108 0
-77 -103 -107 108 0
-77 -103 107 -108 0
103 107 108 0
103 -107 -108 0
77 107 108 0
86 88 92 103 106 -108 109 110 113 -115 0
86 90 103 106 -108 109 110 112 114 -115 0
108 115 0
-90 -103 106 0
-2 -88 106 -108 109 -110 -112 -115 0
-92 -103 106 0
86 103 106 -108 109 110 112 113 114 -115 0
-82 -103 106 -108 -109 110 -115 0
-88 -103 106 0
82 86 88 106 -108 109 110 113 -115 0
86 88 90 103 106 -108 109 110 114 -115 0
86 88 103 106 -108 109 110 113 114 -115 0
82 86 90 106 -108 109 110 112 -115 0
82 88 90 106 -108 109 110 111 -115 0
2 -110 115 0
-2 -33 -111 175 0
82 90 106 -108 109 110 111 112 -115 0
86 88 90 92 -110 115 0
-2 -86 110 -111 115 0
-2 -35 -112 175 0
88 90 -110 111 114 115 0
-2 -88 110 -112 115 0
82 86 106 -108 109 110 112 113 -115 0
33 112 -175 0
86 90 -110 112 114 115 0
-2 -37 -113 176 0
86 92 -110 112 113 115 0
-2 -90 110 -113 115 0
-2 -39 -114 176 0
-2 -90 106 -108 109 -110 -113 -115 0
-2 -92 110 -114 115 0
86 90 92 -110 112 115 0
2 -176 0
37 114 -176 0
-82 -103 109 115 0
86 88 92 -110 113 115 0
-86 -103 106 0
113 114 -176 0
86 88 90 92 103 106 -108 109 110 -115 0
2 103 106 -108 109 110 -115 0
2 -175 0
117 -177 0
-2 -43 -117 177 0
82 86 88 90 106 -108 109 110 -115 0
98 117 -119 0
2 -177 0
88 90 92 -110 111 115 0
117 118 -119 0
-2 -45 -118 178 0
2 82 106 -108 109 110 -115 0
86 -110 112 113 114 115 0
2 -178 0
96 98 -119 0
96 118 -119 0
2 -179 0
-2 -100 -120 121 0
88 92 -110 111 113 115 0
120 -121 0
100 -121 0
-2 -47 -120 179 0
2 -123 0
122 -123 0
-2 -122 123 0
-109 115 116 -124 -132 -133 0
-102 -107 115 0
-105 115 116 -124 -128 -133 0
-109 115 -121 0
-102 -104 115 0
-109 115 -119 0
-104 115 116 -124 -126 -133 0
115 -116 -121 124 -133 0
115 -116 -119 124 -133 0
-105 115 -119 0
102 104 107 109 115 116 119 121 124 128 -133 0
-104 115 -119 0
102 104 109 115 116 119 121 124 128 130 -133 0
2 -126 0
125 -126 0
-2 -125 126 0
2 -128 0
127 -128 0
-2 -127 128 0
16 34 -36 -38 -40 -42 -44 -46 -48 49 50 51 52 53 -54 0
2 -130 0
129 -130 0
-2 -129 130 0
2 -132 0
131 -132 0
-2 -131 132 0
82 -109 115 0
-2 -92 106 -108 109 -110 -114 -115 0
102 104 107 115 116 119 121 124 128 132 -133 0
2 75 134 137 0
-2 -20 -135 174 0
102 104 105 115 116 119 121 124 130 132 -133 0
135 136 139 140 -174 0
102 104 105 109 115 116 119 121 124 130 -133 0
24 31 135 139 -174 0
-2 -24 -136 174 0
102 105 107 109 115 116 119 121 124 126 -133 0
102 105 107 115 116 119 121 124 126 132 -133 0
102 104 115 116 119 121 124 128 130 132 -133 0
102 105 109 115 116 119 121 124 126 130 -133 0
-75 -134 137 0
24 28 31 135 -174 0
71 75 134 136 137 0
82 106 -108 109 110 111 112 113 -115 0
92 -110 111 112 113 115 0
20 31 136 139 -174 0
-2 -28 -139 174 0
102 107 109 115 116 119 121 124 126 128 -133 0
75 134 135 136 137 0
-2 -31 -140 174 0
-115 133 0
20 24 31 139 -174 0
79 81 138 141 0
20 28 136 140 -174 0
20 24 139 140 -174 0
20 24 28 140 -174 0
24 135 139 140 -174 0
-110 111 112 113 114 115 0
16 -50 54 0
82 88 106 -108 109 110 111 113 -115 0
133 -137 -141 164 -174 0
57 -146 0
-57 -71 -142 146 0
138 139 140 141 0
75 142 144 145 -146 0
75 79 81 142 -146 0
81 142 143 144 -146 0
71 75 81 144 -146 0
-57 -75 -143 146 0
71 79 143 145 -146 0
71 79 81 143 -146 0
79 81 142 143 -146 0
71 75 79 145 -146 0
71 75 144 145 -146 0
142 143 144 145 -146 0
75 79 142 145 -146 0
-57 -79 -144 146 0
81 138 139 141 0
71 75 79 81 -146 0
71 143 144 145 -146 0
28 31 135 136 -174 0
24 28 135 140 -174 0
-57 -81 -145 146 0
102 105 115 116 119 121 124 126 130 132 -133 0
102 109 115 116 119 121 124 126 128 130 -133 0
71 81 143 144 -146 0
102 107 115 116 119 121 124 126 128 132 -133 0
79 142 143 145 -146 0
102 115 116 119 121 124 126 128 130 132 -133 0
75 81 142 144 -146 0
57 90 -151 0
-57 -86 -147 151 0
88 90 92 147 -151 0
88 92 147 149 -151 0
86 88 92 149 -151 0
-57 -88 -148 151 0
90 92 147 148 -151 0
86 90 148 150 -151 0
86 88 90 150 -151 0
86 92 148 149 -151 0
-90 -149 151 0
86 88 90 92 -151 0
86 148 149 150 -151 0
-57 -92 -150 151 0
90 147 148 150 -151 0
88 147 149 150 -151 0
57 149 -151 0
147 148 149 150 -151 0
86 90 92 148 -151 0
92 147 148 149 -151 0
-107 115 -121 0
88 90 147 150 -151 0
86 88 149 150 -151 0
-151 164 0
102 104 105 107 109 146 151 153 155 157 163 -164 0
-104 115 -116 -121 -124 0
152 -153 0
-57 -96 -152 153 0
96 -153 0
57 -153 0
154 -155 0
-57 -98 -154 155 0
98 -155 0
57 -155 0
-155 164 0
102 105 109 146 151 153 155 157 159 161 163 -164 0
156 -157 0
-57 -100 -156 157 0
100 -157 0
57 -157 0
102 105 107 146 151 153 155 157 159 162 163 -164 0
-57 -102 -158 164 0
107 109 146 151 153 155 157 158 159 160 163 -164 0
102 104 105 107 146 151 153 155 157 162 163 -164 0
102 104 105 146 151 153 155 157 161 162 163 -164 0
104 105 107 109 146 151 153 155 157 158 163 -164 0
102 104 109 146 151 153 155 157 160 161 163 -164 0
104 105 107 146 151 153 155 157 158 162 163 -164 0
102 104 107 109 146 151 153 155 157 160 163 -164 0
-57 -104 -159 164 0
57 151 163 -164 0
102 146 151 153 155 157 159 160 161 162 163 -164 0
-57 -105 -160 164 0
102 107 109 146 151 153 155 157 159 160 163 -164 0
102 104 105 109 146 151 153 155 157 161 163 -164 0
102 104 107 146 151 153 155 157 160 162 163 -164 0
102 109 146 151 153 155 157 159 160 161 163 -164 0
102 105 146 151 153 155 157 159 161 162 163 -164 0
-57 -107 -161 164 0
-157 164 0
102 104 146 151 153 155 157 160 161 162 163 -164 0
-57 -109 -162 164 0
104 105 146 151 153 155 157 158 161 162 163 -164 0
104 105 109 146 151 153 155 157 158 161 163 -164 0
102 107 146 151 153 155 157 159 160 162 163 -164 0
104 146 151 153 155 157 158 160 161 162 163 -164 0
104 109 146 151 153 155 157 158 160 161 163 -164 0
104 107 146 151 153 155 157 158 160 162 163 -164 0
104 107 109 146 151 153 155 157 158 160 163 -164 0
105 107 146 151 153 155 157 158 159 162 163 -164 0
105 107 109 146 151 153 155 157 158 159 163 -164 0
102 105 107 109 146 151 153 155 157 159 163 -164 0
105 146 151 153 155 157 158 159 161 162 163 -164 0
105 109 146 151 153 155 157 158 159 161 163 -164 0
109 146 151 153 155 157 158 159 160 161 163 -164 0
107 146 151 153 155 157 158 159 160 162 163 -164 0
-163 164 0
-107 115 -119 0
1 -165 0
-1 -20 -142 165 0
28 31 142 143 -165 0
24 28 31 142 -165 0
142 143 144 145 -165 0
20 24 144 145 -165 0
-1 -24 -143 165 0
20 31 143 144 -165 0
20 28 31 143 -165 0
31 142 143 144 -165 0
20 24 28 145 -165 0
20 24 31 144 -165 0
-146 164 0
24 142 144 145 -165 0
-1 -28 -144 165 0
20 143 144 145 -165 0
24 31 142 144 -165 0
-153 164 0
20 24 28 31 -165 0
-1 -31 -145 165 0
28 142 143 145 -165 0
20 28 143 145 -165 0
-102 -109 115 -123 0
146 151 153 155 157 158 159 160 161 162 163 -164 0
24 28 142 145 -165 0
1 -166 0
-1 -33 -147 166 0
147 148 -166 0
35 147 -166 0
-102 115 -116 -123 124 -133 0
-1 -35 -148 166 0
-102 -105 115 0
33 35 -166 0
33 148 -166 0
167 -168 0
-1 -37 -167 168 0
37 -168 0
1 -168 0
150 -169 0
-1 -39 -150 169 0
39 -169 0
1 -169 0
-169 173 0
49 51 52 53 55 165 166 168 169 170 171 172 -173 0
49 52 55 159 161 165 166 168 169 170 171 172 -173 0
49 51 52 53 162 165 166 168 169 170 171 172 -173 0
152 -170 0
-1 -43 -152 170 0
-107 115 116 -124 -130 -133 0
43 -170 0
1 -170 0
154 -171 0
-1 -45 -154 171 0
104 105 107 115 116 119 121 123 124 132 -133 0
104 105 107 109 115 116 119 121 123 124 -133 0
45 -171 0
1 -171 0
-171 173 0
49 51 52 161 162 165 166 168 169 170 171 172 -173 0
104 105 115 116 119 121 123 124 130 132 -133 0
156 -172 0
-1 -47 -156 172 0
104 107 115 116 119 121 123 124 128 132 -133 0
104 107 109 115 116 119 121 123 124 128 -133 0
47 -172 0
1 -172 0
-1 -49 -158 173 0
104 109 115 116 119 121 123 124 128 130 -133 0
51 53 158 160 162 165 166 168 169 170 171 172 -173 0
49 51 52 55 161 165 166 168 169 170 171 172 -173 0
49 51 160 161 162 165 166 168 169 170 171 172 -173 0
51 53 55 158 160 165 166 168 169 170 171 172 -173 0
51 158 160 161 162 165 166 168 169 170 171 172 -173 0
49 51 53 55 160 165 166 168 169 170 171 172 -173 0
52 53 55 158 159 165 166 168 169 170 171 172 -173 0
49 159 160 161 162 165 166 168 169 170 171 172 -173 0
-1 -51 -159 173 0
52 55 158 159 161 165 166 168 169 170 171 172 -173 0
1 -173 0
49 53 159 160 162 165 166 168 169 170 171 172 -173 0
-1 -52 -160 173 0
-172 173 0
49 52 53 159 162 165 166 168 169 170 171 172 -173 0
49 55 159 160 161 165 166 168 169 170 171 172 -173 0
49 53 55 159 160 165 166 168 169 170 171 172 -173 0
51 52 55 158 161 165 166 168 169 170 171 172 -173 0
-1 -53 -161 173 0
104 105 109 115 116 119 121 123 124 130 -133 0
49 51 53 160 162 165 166 168 169 170 171 172 -173 0
51 52 158 161 162 165 166 168 169 170 171 172 -173 0
49 51 55 160 161 165 166 168 169 170 171 172 -173 0
-1 -55 -162 173 0
52 158 159 161 162 165 166 168 169 170 171 172 -173 0
52 53 158 159 162 165 166 168 169 170 171 172 -173 0
49 52 159 161 162 165 166 168 169 170 171 172 -173 0
53 158 159 160 162 165 166 168 169 170 171 172 -173 0
51 52 53 55 158 165 166 168 169 170 171 172 -173 0
53 55 158 159 160 165 166 168 169 170 171 172 -173 0
158 159 160 161 162 165 166 168 169 170 171 172 -173 0
55 158 159 160 161 165 166 168 169 170 171 172 -173 0
51 52 53 158 162 165 166 168 169 170 171 172 -173 0
-166 173 0
-168 173 0
49 52 53 55 159 165 166 168 169 170 171 172 -173 0
-170 173 0
-165 173 0
51 55 158 160 161 165 166 168 169 170 171 172 -173 0
-2 -71 -134 -135 137 0
20 136 139 140 -174 0
-2 -134 -136 137 0
28 135 136 140 -174 0
-105 115 -121 0
20 28 31 136 -174 0
79 138 140 141 0
102 104 105 107 109 115 116 119 121 124 -133 0
-2 -79 -138 -139 141 0
31 135 136 139 -174 0
20 24 28 31 -174 0
-2 -81 -138 -140 141 0
102 104 105 107 115 116 119 121 124 132 -133 0
104 115 116 119 121 123 124 128 130 132 -133 0
2 138 141 0
2 -174 0
105 107 109 115 116 119 121 123 124 126 -133 0
86 88 90 -110 114 115 0
105 109 115 116 119 121 123 124 126 130 -133 0
33 35 -175 0
35 111 -175 0
105 107 115 116 119 121 123 124 126 132 -133 0
111 112 -175 0
105 115 116 119 121 123 124 126 130 132 -133 0
86 88 -110 113 114 115 0
107 115 116 119 121 123 124 126 128 132 -133 0
37 39 -176 0
39 113 -176 0
107 109 115 116 119 121 123 124 126 128 -133 0
133 -137 -141 164 -176 0
49 51 52 53 55 133 -137 -141 -164 173 174 175 176 177 178 179 0
115 116 119 121 123 124 126 128 130 132 -133 0
109 115 116 119 121 123 124 126 128 130 -133 0
49 51 52 53 132 133 -137 -141 -164 173 174 175 176 177 178 179 0
88 -110 111 113 114 115 0
2 -119 0
43 -177 0
-2 -96 -117 119 0
118 -178 0
45 -178 0
-2 -98 -118 119 0
133 -137 -141 164 -178 0
49 51 52 55 130 133 -137 -141 -164 173 174 175 176 177 178 179 0
90 92 -110 111 112 115 0
120 -179 0
47 -179 0
2 -121 0
49 51 53 55 128 133 -137 -141 -164 173 174 175 176 177 178 179 0
-49 -123 133 -137 -141 164 0
51 53 123 128 132 133 -137 -141 -164 173 174 175 176 177 178 179 0
49 51 52 130 132 133 -137 -141 -164 173 174 175 176 177 178 179 0
49 51 53 128 132 133 -137 -141 -164 173 174 175 176 177 178 179 0
51 123 128 130 132 133 -137 -141 -164 173 174 175 176 177 178 179 0
51 55 123 128 130 133 -137 -141 -164 173 174 175 176 177 178 179 0
49 51 55 128 130 133 -137 -141 -164 173 174 175 176 177 178 179 0
52 53 123 126 132 133 -137 -141 -164 173 174 175 176 177 178 179 0
49 52 53 55 126 133 -137 -141 -164 173 174 175 176 177 178 179 0
-51 -126 133 -137 -141 164 0
51 52 53 123 132 133 -137 -141 -164 173 174 175 176 177 178 179 0
49 52 55 126 130 133 -137 -141 -164 173 174 175 176 177 178 179 0
-52 -128 133 -137 -141 164 0
49 126 128 130 132 133 -137 -141 -164 173 174 175 176 177 178 179 0
49 52 53 126 132 133 -137 -141 -164 173 174 175 176 177 178 179 0
49 52 126 130 132 133 -137 -141 -164 173 174 175 176 177 178 179 0
51 52 55 123 130 133 -137 -141 -164 173 174 175 176 177 178 179 0
49 53 126 128 132 133 -137 -141 -164 173 174 175 176 177 178 179 0
-53 -130 133 -137 -141 164 0
51 52 123 130 132 133 -137 -141 -164 173 174 175 176 177 178 179 0
49 51 128 130 132 133 -137 -141 -164 173 174 175 176 177 178 179 0
-55 -132 133 -137 -141 164 0
133 -137 -141 164 -179 0
49 55 126 128 130 133 -137 -141 -164 173 174 175 176 177 178 179 0
51 53 55 123 128 133 -137 -141 -164 173 174 175 176 177 178 179 0
52 55 123 126 130 133 -137 -141 -164 173 174 175 176 177 178 179 0
49 53 55 126 128 133 -137 -141 -164 173 174 175 176 177 178 179 0
53 55 123 126 128 133 -137 -141 -164 173 174 175 176 177 178 179 0
52 123 126 130 132 133 -137 -141 -164 173 174 175 176 177 178 179 0
51 52 53 55 123 133 -137 -141 -164 173 174 175 176 177 178 179 0
55 123 126 128 130 133 -137 -141 -164 173 174 175 176 177 178 179 0
53 123 126 128 132 133 -137 -141 -164 173 174 175 176 177 178 179 0
52 53 55 123 126 133 -137 -141 -164 173 174 175 176 177 178 179 0
133 -137 -141 164 -175 0
123 126 128 130 132 133 -137 -141 -164 173 174 175 176 177 178 179 0
133 -137 -141 164 -177 0
133 -137 -141 164 -173 0
90 -110 111 112 114 115 0
